
Gurobi 6.5.2 (linux64) logging started Tue Sep 20 21:18:14 2016


Gurobi 6.5.2 (linux64) logging started Tue Sep 20 21:18:14 2016

Optimize a model with 101 rows, 908 columns and 1897 nonzeros
Coefficient statistics:
  Matrix range    [1e+00, 2e+00]
  Objective range [4e+00, 1e+02]
  Bounds range    [1e+00, 1e+00]
  RHS range       [1e+00, 1e+00]
Found heuristic solution: objective 3149
Presolve removed 37 rows and 14 columns
Presolve time: 0.00s
Presolved: 64 rows, 894 columns, 1791 nonzeros
Variable types: 0 continuous, 894 integer (894 binary)

Root relaxation: objective 6.935000e+02, 76 iterations, 0.00 seconds

    Nodes    |    Current Node    |     Objective Bounds      |     Work
 Expl Unexpl |  Obj  Depth IntInf | Incumbent    BestBd   Gap | It/Node Time

     0     0  693.50000    0   12 3149.00000  693.50000  78.0%     -    0s
     0     0  697.00000    0   22 3149.00000  697.00000  77.9%     -    0s
     0     0  699.75000    0   27 3149.00000  699.75000  77.8%     -    0s
     0     0  701.00000    0    4 3149.00000  701.00000  77.7%     -    0s
     0     0  701.00000    0   17 3149.00000  701.00000  77.7%     -    0s
     0     0  701.00000    0    4 3149.00000  701.00000  77.7%     -    0s
     0     2  701.00000    0    4 3149.00000  701.00000  77.7%     -    0s
*   51    26              10     704.0000000  701.16667  0.40%   3.7    0s

Cutting planes:
  MIR: 1
  Zero half: 10
  Lazy constraints: 45

Explored 211 nodes (836 simplex iterations) in 0.12 seconds
Thread count was 8 (of 8 available processors)

Optimal solution found (tolerance 1.00e-04)
Best objective 7.040000000000e+02, best bound 7.040000000000e+02, gap 0.0%
